# sample surface deposition script for molecules
#-------------------- Initialization -----------------------------------------------------
clear
echo            both    # echoes each input script command to both log file and screen
#-----------------------------------------------------------------------------------------
units           metal   # determines units of all quantities used in the input file 
atom_style      full
boundary        p p p   # original is "boundary p p f"
#-----------------------------------------------------------------------------------------
variable Tini equal 273+25  # [K] (Initial temperature)
variable Tfin equal 273+900 # [K] (Annealing temperature)

variable Nout equal  1000 # every 1000 time steps to the specified file

#-------------------- Atom & Lattice description ----------------------------------------
lattice         fcc 3.818
region          box block 0 5 0 5 0 10
create_box      3 box # <= 3 types for "elem"

region          substrate block INF INF INF INF INF 3
create_atoms    1 region substrate

mass 1 101.07 # Ru
mass 2 12.01  # C
mass 3 14.01  # N

variable elem string "Ru C N"

#-------------------- Force field --------------------------------------------------------
# CPU case
#pair_style hybrid/overlay chgnet /mnt/d/lammps/potentials/CHGNET momb 12.0 0.75 20.0
#pair_coeff    * *  chgnet 0.3.0 ${elem}

# GPU case
pair_style hybrid/overlay chgnet/gpu /mnt/d/lammps/potentials/CHGNET momb 12.0 0.75 20.0
pair_coeff    * *  chgnet/gpu 0.3.0 ${elem}

# atom type 1, Ru
variable C6_1 equal 24.67 # Jnm6mol-1
variable R0_1 equal 1.639 # Angstrom

# atom type 2, C
variable C6_2 equal 1.75  # Jnm6mol-1
variable R0_2 equal 1.452 # Angstrom

# atom type 3, N
variable C6_3 equal 1.23  # Jnm6mol-1
variable R0_3 equal 1.397 # Angstrom

# convert [Jnm6mol-1] to [eVA6], (sqrt() or ()^0.5)
#----------------------------------------------------------------------------------
pair_coeff 1 1 momb 0.0 1.0 1.0 $(sqrt(v_C6_1 * v_C6_1)*10.364) $(v_R0_1 + v_R0_1) # Cu-Cu
pair_coeff 1 2 momb 0.0 1.0 1.0 $(sqrt(v_C6_1 * v_C6_2)*10.364) $(v_R0_1 + v_R0_2) # Cu-C
pair_coeff 1 3 momb 0.0 1.0 1.0 $(sqrt(v_C6_1 * v_C6_3)*10.364) $(v_R0_1 + v_R0_3) # Cu-N
#----------------------------------------------------------------------------------
pair_coeff 2 2 momb 0.0 1.0 1.0 $(sqrt(v_C6_2 * v_C6_2)*10.364) $(v_R0_2 + v_R0_2) # C-C
pair_coeff 2 3 momb 0.0 1.0 1.0 $(sqrt(v_C6_2 * v_C6_3)*10.364) $(v_R0_2 + v_R0_3) # C-N
#----------------------------------------------------------------------------------
pair_coeff 3 3 momb 0.0 1.0 1.0 $(sqrt(v_C6_3 * v_C6_3)*10.364) $(v_R0_3 + v_R0_3) # N-N
#----------------------------------------------------------------------------------

#-------------------- Settings -----------------------------------------------------------
neigh_modify  delay 0

group    addatoms type 2 3 # <= Types (2nd row) in molecule.txt
region   mobile block 0 5 0 5 2 INF
group    mobile region mobile

molecule        molecule molecule.txt
region          slab block 0 5 0 5 8 9

timestep 0.001 # 1.0 [fs] (Recommend 0.1-1.0 [fs]), sets the timestep for subsequent simulations

compute  add addatoms temp
compute_modify add dynamic/dof yes extra/dof 0

thermo          ${Nout}
thermo_style    custom step atoms temp epair etotal press
thermo_modify   temp add lost/bond ignore lost warn

dump            d1 all cfg ${Nout} cfg/run.*.cfg mass type xs ys zs id type vx vy vz fx fy fz
dump_modify     d1 element ${elem}

#velocity all create ${Tini} 12345 mom yes rot no # sets the velocity of a group of atoms

#-------------------- Run the simulation -------------------------------------------------
# non-equilibrium system, calculation settings
fix f1 addatoms nve
fix f2 mobile langevin ${Tini} ${Tfin} $(100*dt) 1234567
fix f3 mobile nve

fix  f4 addatoms deposit 100 0 100 12345 region slab near 1.0 &
                mol molecule vz -1.0 -1.0

#fix  f5 addatoms wall/reflect zhi EDGE # <= boundary p p f

run             10000

#-------------------- End ----------------------------------------------------------------