#-----------------------------------------------------------------------------------------
# 4.2 Creation of Al-Si-Mg-Cu-Fe alloys
#  Test: LAMMPS 64-bit 22Dec2022-MSMPI version
#-----------------------------------------------------------------------------------------
clear
echo both
#-------------------- Environment Settings -----------------------------------------------
variable  Tdesird equal  273+170.0 # Desired Temperature [K]

variable  Pdesird equal        1.0 # Desired Pressure [bar] (1 bar = 0.1 MPa = 100 kPa)

variable  dt_ps   equal   0.003 # 3.0 [fs] (Recommend 0.1-3.5 [fs]), sets the timestep for subsequent simulations

variable Nsteps   equal    1000 # The number of calculations (e.g., 1000 - 100000)
variable Nout     equal     100 # output (e.g., 10 - 1000)

variable rseed    equal   12345 # random seed (Note: If you want different results, use different values.)

#-------------------- Initialization -----------------------------------------------------
units metal
dimension 3
boundary p p p

#-------------------- Atom & Lattice description ----------------------------------------
atom_style atomic

read_data data_after_step1.lammps

variable elem string "Al Si Mg Cu Fe"

#-------------------- Force field --------------------------------------------------------
pair_style      m3gnet /mnt/d/lammps/potentials/M3GNET
#pair_style      m3gnet/d3 /mnt/d/lammps/potentials/M3GNET

#pair_coeff      * *  MP-2021.2.8-EFS ${elem} # M3GNet <https://github.com/materialsvirtuallab/m3gnet> will be called
pair_coeff      * *  M3GNet-MP-2021.2.8-PES ${elem} # MatGL <https://github.com/materialsvirtuallab/matgl> will be called

#-------------------- Settings -----------------------------------------------------------
timestep ${dt_ps}

thermo ${Nout}   # computes and prints thermodynamic 
thermo_style custom step temp vol press etotal   # specifies content of thermodynamic data to be printed in screen

velocity all create ${Tdesird} ${rseed} mom yes rot no # sets the velocity of a group of atoms

#---------- output file settings --------------------------------------
dump            d1 all cfg ${Nout} cfg/run.md.*.cfg mass type xs ys zs id type vx vy vz fx fy fz
dump_modify     d1 element ${elem}
#----------------------------------------------------------------------

#-------------------- Run the simulation -------------------------------------------------
fix f1 all npt temp ${Tdesird} ${Tdesird} $(100*dt) iso 1.0 ${Pdesird} $(1000*dt)

run ${Nsteps}

write_data data_after_step2.lammps

#-------------------- End ----------------------------------------------------------------
