#-------------------- Initialization -----------------------------------------------------
clear
echo            both    # echoes each input script command to both log file and screen
#-----------------------------------------------------------------------------------------
units           metal
atom_style      full
boundary        p p f
#-----------------------------------------------------------------------------------------
variable Tini equal 273+25  # [K] (Initial temperature)
variable Tfin equal 273+85 # [K] (Annealing temperature)

variable Nout equal  1000 # every 1000 time steps to the specified file

#-------------------- Atom & Lattice description ----------------------------------------
read_data       data_va0.lammps

replicate 6 4 1

variable elem string "Li Mn O H O"

variable substrate_top equal 5.833
region inside block $(xlo+1.0) $(xhi-1.0) $(ylo+1.0) $(yhi-1.0) $(v_substrate_top+1.0) $(zhi-1.0)

molecule        my_one_water H2O.txt
group           water type 4:5

#-------------------- Force field --------------------------------------------------------
pair_style      m3gnet /mnt/d/lammps/potentials/M3GNET
#pair_style      m3gnet/d3 /mnt/d/lammps/potentials/M3GNET

#pair_coeff      * *  MP-2021.2.8-EFS ${elem} # M3GNet <https://github.com/materialsvirtuallab/m3gnet> will be called
pair_coeff      * *  M3GNet-MP-2021.2.8-PES ${elem} # MatGL <https://github.com/materialsvirtuallab/matgl> will be called
#pair_coeff      * *  M3GNet-MP-2021.2.8-DIRECT-PES ${elem} # MatGL <https://github.com/materialsvirtuallab/matgl> will be called

fix fq all qeq/slater 5 10 1.0e-6 100 qfile # alpha 0.2
#fix fq all qeq/point 1 10 1.0e-6 200 qfile
#fix fq all qeq/dynamic 1 12 1.0e-3 100 qfile
#fix fq all qeq/shielded 1 8 1.0e-6 100 qfile # failed
#fix fq all qeq/fire 1 10 1.0e-3 100 qfile qdamp 0.2 qstep 0.1 # failed

#-------------------- Settings -----------------------------------------------------------
timestep 0.0001 # 0.1 [fs] (Recommend 0.1-0.5 [fs])

thermo ${Nout}
thermo_style custom step time cpu cpuremain lx ly lz press pe temp

velocity all create ${Tini} 12345 mom yes rot no

#-------------------- Run the simulation -------------------------------------------------
compute mdtemp all temp
compute_modify mdtemp dynamic/dof yes

# Equilibrium system, calculation settings
#fix mdnvt mdatoms nvt temp ${Tini} ${Tfin} $(100*dt)
#fix_modify mdnvt temp mdtemp

# non-equilibrium system, calculation settings
fix f1 all nve
fix f2 all langevin ${Tini} ${Tfin} $(100*dt) 1234567
fix_modify f2 temp mdtemp

# GCMC
fix f3 water gcmc 100 1 1 0 123456 ${Tfin} -0.0002 0.01 mol my_one_water full_energy region inside

# E-field component values (electric field units) (electric field = volts/Angstrom)
variable va equal 1.5/lz
fix kick all efield 0.0 0.0 v_va
fix f0 all wall/reflect zlo EDGE zhi EDGE # For boundary p p f

#---------- output file settings --------------------------------------
dump            d1 all cfg ${Nout} cfg/run.*.cfg mass type xs ys zs id type vx vy vz fx fy fz q
dump_modify     d1 element ${elem}
#dump_modify     d1 sort id
#----------------------------------------------------------------------

run             1000000

#-------------------- End ----------------------------------------------------------------
