units           metal
atom_style      charge
boundary        p p f

read_data       data_va0.lammps

replicate 6 4 1

group           gas type 4

variable Tini equal 300.0 # [K]
variable Tfin equal 600.0 # [K]
variable Nout equal 1000

#pair_style    chgnet /mnt/d/lammps/src/ML-CHGNET
#pair_style    chgnet/d3 /mnt/d/lammps/src/ML-CHGNET
pair_style    chgnet/gpu /mnt/d/lammps/src/ML-CHGNET
#pair_style    chgnet/d3/gpu /mnt/d/lammps/src/ML-CHGNET

variable elem string "Li Mn O C"

pair_coeff    * *  0.3.0 ${elem}
#pair_coeff    * *  path ./users_model.pt ${elem}

timestep 0.0001 # 0.1 [fs] (Recommend 0.1-0.5 [fs])

thermo ${Nout}
thermo_style custom step time cpu cpuremain lx ly lz press pe temp

velocity all create ${Tini} 12345 mom yes rot no

# Equilibrium system, calculation settings
#fix f1 all nvt temp ${Tini} ${Tfin} $(100*dt)
#fix f1 all npt temp ${Tini} ${Tfin} $(100*dt) iso 1.0 1.0 $(1000*dt)

# non-equilibrium system, calculation settings
fix f1 all nve
fix f2 all langevin ${Tini} ${Tfin} $(100*dt) 1234567

# GCMC (gas = type 4)
fix f3 gas gcmc 100 1 1 4 29494 ${Tfin} 0.0 0.01

# E-field component values (electric field units) (electric field = volts/Angstrom)
variable va equal 2.0/lz
fix kick all efield 0.0 0.0 v_va
fix f0 all wall/reflect zlo EDGE zhi EDGE # For boundary p p f

dump            d1 all cfg ${Nout} cfg/run.*.cfg mass type xs ys zs id type vx vy vz fx fy fz q
dump_modify     d1 element ${elem}
#dump_modify     d1 sort id

run             1000000
