units           metal
atom_style      charge
boundary        p p p

read_data       data_va0.lammps

replicate 2 2 2

variable Tini equal 300.0 # [K]
variable Tfin equal 600.0 # [K]

pair_style      m3gnet /mnt/d/lammps/potentials/M3GNET
#pair_style      m3gnet/d3 /mnt/d/lammps/potentials/M3GNET

variable elem string "Li Mn O"

#pair_coeff      * *  MP-2021.2.8-EFS ${elem} # M3GNet <https://github.com/materialsvirtuallab/m3gnet> will be called
pair_coeff      * *  M3GNet-MP-2021.2.8-PES ${elem} # MatGL <https://github.com/materialsvirtuallab/matgl> will be called
#pair_coeff      * *  M3GNet-MP-2021.2.8-DIRECT-PES ${elem} # MatGL <https://github.com/materialsvirtuallab/matgl> will be called

fix fq all qeq/slater 5 10 1.0e-6 100 qfile # alpha 0.2
#fix fq all qeq/point 1 10 1.0e-6 200 qfile
#fix fq all qeq/dynamic 1 12 1.0e-3 100 qfile
#fix fq all qeq/shielded 1 8 1.0e-6 100 qfile # failed
#fix fq all qeq/fire 1 10 1.0e-3 100 qfile qdamp 0.2 qstep 0.1 # failed

timestep 0.0001 # 0.1 [fs] (Recommend 0.1-0.5 [fs])

thermo 100
thermo_style custom step time cpu cpuremain lx ly lz press pe temp

velocity all create ${Tini} 12345 mom yes rot no

# Equilibrium system, calculation settings
#fix f1 all nvt temp ${Tini} ${Tfin} $(100*dt)
fix f1 all npt temp ${Tini} ${Tfin} $(100*dt) iso 1.0 1.0 $(1000*dt)

dump            d1 all cfg 100 cfg/run.*.cfg mass type xs ys zs id type vx vy vz fx fy fz q
dump_modify     d1 element ${elem}
dump_modify     d1 sort id

run             10000
