#-------------------- Initialization -----------------------------------------------------
clear
echo            both  # echoes each input script command to both log file and screen
#-----------------------------------------------------------------------------------------
variable XLO equal xlo
variable XHI equal xhi
variable YLO equal ylo
variable YHI equal yhi
variable ZLO equal zlo
variable ZHI equal zhi
variable LC equal 3.52
variable b equal 0.5*sqrt(2)*${LC}
variable b2 equal $b/2
variable PI equal 3.14159265358979
variable dx equal sqrt(2)
variable dy equal sqrt(3)
variable dz equal sqrt(6)/2

variable ROT equal 0   # -90 z,0 y

# --------------- General Settings -------------------------------------------------------
units        metal     # determines units of all quantities used in the input file 
boundary     p p p     # periodic boundary condition
atom_style   atomic
atom_modify  map array # sort 0 0.0

#-------------------- Atom & Lattice description ----------------------------------------
lattice fcc ${LC}  orient z -1 1 0 orient y 1 1 1 orient x -1 -1 2 # spacing
region box block 0 3 0 3 0 4
create_box 2 box
create_atoms 1 box

change_box all y delta -1 1 units box
change_box all x delta -1 1 units box

mass 1 58.93 # Co
mass 2 58.96 # Ni

set type 1 type/fraction 2 0.7 545096 # concentration 0.7 of type 1

variable elem string "Co Ni"

#-------------------- Force field --------------------------------------------------------
pair_style      m3gnet /mnt/d/lammps/potentials/M3GNET
#pair_style      m3gnet/d3 /mnt/d/lammps/potentials/M3GNET

#pair_coeff      * *  MP-2021.2.8-EFS ${elem} # M3GNet <https://github.com/materialsvirtuallab/m3gnet> will be called
pair_coeff      * *  M3GNet-MP-2021.2.8-PES ${elem} # MatGL <https://github.com/materialsvirtuallab/matgl> will be called

#-------------------- Settings -----------------------------------------------------------
neighbor        2.0 bin 
neigh_modify    delay 5

#compute 1 all pe/atom
#compute 2 all stress/atom NULL

thermo 100
thermo_style one

#write_dump all custom pft.out id x y z

variable XC equal (${XLO}+${XHI})/2.0
variable YC equal (${YLO}+${YHI})/2.0
variable ZC equal (${ZLO}+${ZHI})/2.0

#-----------------------------------------------------------------------------------------
variable N equal count(all)

variable I loop 1 $N

label LOOP

variable ix equal y[$I]
variable iy equal x[$I]

variable dx equal ${ix}-${YC}
variable dy equal ${iy}-${XC}

if "${dx}==0 && ${dy}==0" then &
    "variable theta equal 0" &
    "variable degree equal 0.0"

if "${dx}==0 && ${dy}!=0" then &
    "variable degree equal 90.0*${dy}/abs(${dy})"

if "${dx}!=0" then &
    "variable s equal ${dy}/${dx}" &
    "variable theta equal atan($s)" &
    "variable degree equal ${theta}/${PI}*180.0"

if "${dx}<0.0 && ${dy}>=0.0" then &
     "variable degree equal 180.0+${degree}"
if "${dx}<0.0 && ${dy}<0.0" then &
     "variable degree equal -180.0+${degree}"


if "${degree} < -180.0" then "variable degree equal ${degree}+360.0"

variable dz equal ${degree}/180.0*${b2}

group m id $I
displace_atoms m move 0.0 0.0 ${dz} units box
group m delete

#dump 1 all atom 1 ./cfg/file.$I.cfg
dump            1 all cfg 1 cfg/file.*.$I.cfg mass type xs ys zs id type vx vy vz fx fy fz
dump_modify     1 element ${elem}

run 0 
undump 1


next I
jump SELF LOOP

#-------------------- Energy Minimization ------------------------------------------------
# 0 [K], structure optimization

#minimize 1e-18 1e-18 100000 100000
minimize 1.0e-4 1.0e-6 100 1000
#minimize 0.0 1.0e-8 1000 100000

#write_dump all custom final.atom id x y z

print "All done"
#-------------------- End ----------------------------------------------------------------