units           metal
atom_style      charge
boundary        p p f

read_data       data_va0.lammps

replicate 4 4 1

variable Tini equal 300.0 # [K]
variable Tfin equal 600.0 # [K]

# If "CHGNet" is not +/- 30 % of this configuration (may be set in Read_data or MoleCule File), this set value is forcibly used.
set type 1 charge +1
set type 2 charge +3
set type 3 charge -2

#pair_style    chgnet /mnt/d/lammps/src/ML-CHGNET
#pair_style    chgnet/d3 /mnt/d/lammps/src/ML-CHGNET
pair_style    chgnet/gpu /mnt/d/lammps/src/ML-CHGNET
#pair_style    chgnet/d3/gpu /mnt/d/lammps/src/ML-CHGNET

variable elem string "Li Mn O"

pair_coeff    * *  0.3.0 ${elem}
#pair_coeff    * *  path ./users_model.pt ${elem}

timestep 0.0001 # 0.1 [fs] (Recommend 0.1-0.5 [fs])

thermo 100
thermo_style custom step time cpu cpuremain lx ly lz press pe temp

velocity all create ${Tini} 12345 mom yes rot no

# Equilibrium system, calculation settings
#fix f1 all nvt temp ${Tini} ${Tfin} $(100*dt)

# non-equilibrium system, calculation settings
fix f1 all nve
fix f2 all langevin ${Tini} ${Tfin} $(100*dt) 1234567

# E-field component values (electric field units) (electric field = volts/Angstrom)
variable va equal 2.0/lz
fix kick all efield 0.0 0.0 v_va
#fix f0 all wall/reflect zhi EDGE # For boundary p p f
fix f0 all wall/reflect zlo EDGE zhi EDGE # For boundary p p f

dump            d1 all cfg 100 cfg/run.*.cfg mass type xs ys zs id type vx vy vz fx fy fz q
dump_modify     d1 element ${elem}
dump_modify     d1 sort id

run             10000
